&CONTROL
  calculation = 'scf'
  etot_conv_thr =   5.0000000000d-05
  forc_conv_thr =   1.0000000000d-04
  max_seconds =   4.1040000000d+04
  outdir = './out/'
  prefix = 'aiida'
  pseudo_dir = './pseudo/'
  tprnfor = .true.
  tstress = .true.
  verbosity = 'high'
/
&SYSTEM
  degauss =   1.0000000000d-02
  ecutrho =   4.8000000000d+02
  ecutwfc =   6.0000000000d+01
  ibrav = 0
  nat = 5
  nosym = .false.
  ntyp = 3
  occupations = 'smearing'
  smearing = 'cold'
/
&ELECTRONS
  conv_thr =   1.0000000000d-09
  electron_maxstep = 80
  mixing_beta =   4.0000000000d-01
/
ATOMIC_SPECIES
Cd     112.411 Cd.pbesol-dn-rrkjus_psl.0.3.1.UPF
N      14.0067 N.pbesol-theos.UPF
Ni     58.6934 ni_pbesol_v1.4.uspp.F.UPF
ATOMIC_POSITIONS angstrom
Cd           1.8989173021       1.8989173021       1.8989173021 
Ni           1.8989173021       0.0000000000       0.0000000000 
Ni           0.0000000000       1.8989173021       0.0000000000 
Ni           0.0000000000       0.0000000000       1.8989173021 
N            0.0000000000       0.0000000000       0.0000000000 
K_POINTS automatic
8 8 8 0 0 0
CELL_PARAMETERS angstrom
      3.7978346043       0.0000000000       0.0000000000
      0.0000000000       3.7978346043       0.0000000000
      0.0000000000       0.0000000000       3.7978346043